(declare-sort Loc 0)
(declare-const f1_0_main_New Loc)
(declare-const f217_0_merge_NONNULL Loc)
(declare-const f561_0_main_FieldAccess Loc)
(declare-const f580_0_main_InvokeMethod Loc)
(declare-const f418_0_merge_Return Loc)
(declare-const f1500_0_main_InvokeMethod Loc)
(declare-const f747_0_append_Return Loc)
(declare-const f749_0_append_Return Loc)
(declare-const f1650_0_main_InvokeMethod Loc)
(declare-const f1341_0_append_NONNULL Loc)
(declare-const f1472_0_iter_NULL Loc)
(declare-const f1570_0_reverseAcc_NONNULL Loc)
(declare-const f1682_0_reverse_NONNULL Loc)
(declare-const f1748_0_reverse_InvokeMethod Loc)
(declare-const __init Loc)
(assert (distinct f1_0_main_New f217_0_merge_NONNULL f561_0_main_FieldAccess f580_0_main_InvokeMethod f418_0_merge_Return f1500_0_main_InvokeMethod f747_0_append_Return f749_0_append_Return f1650_0_main_InvokeMethod f1341_0_append_NONNULL f1472_0_iter_NULL f1570_0_reverseAcc_NONNULL f1682_0_reverse_NONNULL f1748_0_reverse_InvokeMethod __init ))

(define-fun cfg_init ( (pc Loc) (src Loc) (rel Bool) ) Bool
  (and (= pc src) rel))

(define-fun cfg_trans2 ( (pc Loc) (src Loc)
                         (pc1 Loc) (dst Loc)
                         (rel Bool) ) Bool
  (and (= pc src) (= pc1 dst) rel))

(define-fun cfg_trans3 ( (pc Loc) (exit Loc)
                         (pc1 Loc) (call Loc)
                         (pc2 Loc) (return Loc)
                         (rel Bool) ) Bool
  (and (= pc exit) (= pc1 call) (= pc2 return) rel))

(define-fun init_main ( (pc Loc) (arg1 Int) (arg2 Int) (arg3 Int) (arg4 Int) (arg5 Int) ) Bool
  (cfg_init pc __init true))

(define-fun next_main (
                 (pc Loc) (arg1 Int) (arg2 Int) (arg3 Int) (arg4 Int) (arg5 Int)
                 (pc1 Loc) (arg1P Int) (arg2P Int) (arg3P Int) (arg4P Int) (arg5P Int)
             ) Bool
  (or
    (cfg_trans2 pc f1_0_main_New pc1 f217_0_merge_NONNULL (and (> arg2P 6) (> arg1P 9)))
    (cfg_trans2 pc f1_0_main_New pc1 f561_0_main_FieldAccess (and (and (and (> arg2P 6) (> arg1P 4)) (= 3 arg3P)) (= 1 arg4P)))
    (cfg_trans2 pc f1_0_main_New pc1 f580_0_main_InvokeMethod (and (and (> arg2P 6) (> arg1P 6)) (= 5 arg5P)))
    (cfg_trans2 pc f418_0_merge_Return pc1 f580_0_main_InvokeMethod (and (and (and (and (and (> arg1 6) (> arg1P 6)) (> arg2P 6)) (<= (+ arg2 2) arg1)) (= 5 arg3)) (= 5 arg5P)))
    (cfg_trans2 pc f580_0_main_InvokeMethod pc1 f1500_0_main_InvokeMethod (and (and (and (and (and (and (> arg1 6) (> arg2 6)) (> arg1P 6)) (<= (+ arg3 2) arg1)) (<= (+ arg4 2) arg2)) (= 5 arg5)) (= 5 arg3P)))
    (cfg_trans2 pc f561_0_main_FieldAccess pc1 f1500_0_main_InvokeMethod (and (and (and (and (and (and (and (> arg1 0) (> arg2 2)) (> arg1P 9)) (<= (+ arg3 2) arg1)) (<= (+ arg4 2) arg2)) (<= (+ arg3 4) arg2)) (= 6 arg2P)) (= 5 arg3P)))
    (cfg_trans2 pc f580_0_main_InvokeMethod pc1 f1500_0_main_InvokeMethod (and (and (and (and (and (and (> arg1 6) (> arg2 6)) (> arg1P 6)) (<= (+ arg3 2) arg1)) (<= (+ arg4 2) arg2)) (= 5 arg5)) (= 5 arg3P)))
    (cfg_trans2 pc f561_0_main_FieldAccess pc1 f1500_0_main_InvokeMethod (and (and (and (and (and (and (and (and (and (<= (- arg1P 9) arg1) (<= (- arg1P 7) arg2)) (> arg1 0)) (> arg2 2)) (> arg1P 9)) (<= (+ arg3 2) arg1)) (<= (+ arg4 2) arg2)) (<= (+ arg3 4) arg2)) (= 6 arg2P)) (= 5 arg3P)))
    (cfg_trans2 pc f747_0_append_Return pc1 f1500_0_main_InvokeMethod (and (and (and (and (and (and (and (<= arg1P arg1) (> arg1 6)) (> arg1P 6)) (<= (+ arg2 4) arg1)) (<= (+ arg3 4) arg1)) (= 5 arg4)) (= arg3 arg2P)) (= 5 arg3P)))
    (cfg_trans2 pc f749_0_append_Return pc1 f1500_0_main_InvokeMethod (and (and (and (and (and (and (and (<= arg1P arg1) (> arg1 9)) (> arg1P 9)) (<= (+ arg2 4) arg1)) (= 6 arg3)) (= 5 arg4)) (= 6 arg2P)) (= 5 arg3P)))
    (cfg_trans2 pc f1500_0_main_InvokeMethod pc1 f1650_0_main_InvokeMethod (and (and (and (and (and (and (<= arg1P arg1) (> arg1 6)) (> arg1P 6)) (<= (+ arg2 4) arg1)) (= 5 arg3)) (= arg2 arg2P)) (= 5 arg3P)))
    (cfg_trans2 pc f1500_0_main_InvokeMethod pc1 f1650_0_main_InvokeMethod (and (and (and (and (and (and (<= arg1P arg1) (> arg1 6)) (> arg1P 6)) (<= (+ arg2 4) arg1)) (= 5 arg3)) (= arg2 arg2P)) (= 5 arg3P)))
    (cfg_trans2 pc f217_0_merge_NONNULL pc1 f217_0_merge_NONNULL (exists ((x54 Int) (x53 Int)) (and (and (and (and (and (and (<= arg1P arg1) (> x54 x53)) (<= (+ arg2P 1) arg2)) (> arg1 0)) (> arg2 0)) (> arg1P 0)) (> arg2P (- 1)))))
    (cfg_trans2 pc f217_0_merge_NONNULL pc1 f217_0_merge_NONNULL (exists ((x60 Int) (x59 Int)) (and (and (and (and (and (and (<= (+ arg1P 2) arg1) (<= x60 x59)) (<= arg2P arg2)) (> arg1 2)) (> arg2 0)) (> arg1P 0)) (> arg2P 0))))
    (cfg_trans2 pc f580_0_main_InvokeMethod pc1 f1341_0_append_NONNULL (and (and (and (and (and (and (and (and (and (and (and (<= arg2P arg1) (<= arg2P arg2)) (> arg1 6)) (> arg2 6)) (> arg1P 6)) (> arg2P 6)) (> arg3P (- 1))) (<= (+ arg3 2) arg1)) (<= (+ arg4 2) arg2)) (= 5 arg5)) (= 5 arg4P)) (= 1 arg5P)))
    (cfg_trans2 pc f561_0_main_FieldAccess pc1 f1341_0_append_NONNULL (and (and (and (and (and (and (and (and (and (and (<= (- arg2P 2) arg2) (> arg1 0)) (> arg2 2)) (> arg1P 9)) (> arg2P 4)) (> arg3P (- 1))) (<= (+ arg3 2) arg1)) (<= (+ arg4 2) arg2)) (<= (+ arg3 4) arg2)) (= 5 arg4P)) (= arg4 arg5P)))
    (cfg_trans2 pc f1341_0_append_NONNULL pc1 f1341_0_append_NONNULL (and (and (and (and (and (and (and (and (and (<= arg2P arg2) (> arg1 2)) (> arg2 0)) (> arg3 0)) (> arg1P 0)) (> arg2P 0)) (> arg3P (- 1))) (<= (+ arg4 2) arg1)) (<= (+ arg5 2) arg2)) (= arg5 arg5P)))
    (cfg_trans2 pc f580_0_main_InvokeMethod pc1 f1472_0_iter_NULL (and (and (and (and (and (and (and (and (and (<= arg1P arg1) (<= arg1P arg2)) (> arg1 6)) (> arg2 6)) (> arg1P 6)) (> arg2P (- 1))) (<= (+ arg3 2) arg1)) (<= (+ arg4 2) arg2)) (= 5 arg5)) (= 5 arg3P)))
    (cfg_trans2 pc f1500_0_main_InvokeMethod pc1 f1472_0_iter_NULL (and (and (and (and (and (and (<= arg1P arg1) (> arg1 6)) (> arg1P 6)) (> arg2P (- 1))) (<= (+ arg2 4) arg1)) (= 5 arg3)) (= 5 arg3P)))
    (cfg_trans2 pc f1472_0_iter_NULL pc1 f1472_0_iter_NULL (and (and (and (and (> arg1 2) (> arg2 0)) (> arg1P 0)) (> arg2P (- 1))) (<= (+ arg3 2) arg1)))
    (cfg_trans2 pc f580_0_main_InvokeMethod pc1 f1570_0_reverseAcc_NONNULL (and (and (and (and (and (and (and (and (and (<= arg1P arg1) (<= arg1P arg2)) (> arg1 6)) (> arg2 6)) (> arg1P 6)) (> arg2P (- 1))) (<= (+ arg3 2) arg1)) (<= (+ arg4 2) arg2)) (= 5 arg5)) (= 5 arg3P)))
    (cfg_trans2 pc f1500_0_main_InvokeMethod pc1 f1570_0_reverseAcc_NONNULL (and (and (and (and (and (and (<= arg1P arg1) (> arg1 6)) (> arg1P 6)) (> arg2P (- 1))) (<= (+ arg2 4) arg1)) (= 5 arg3)) (= 5 arg3P)))
    (cfg_trans2 pc f1570_0_reverseAcc_NONNULL pc1 f1570_0_reverseAcc_NONNULL (and (and (and (and (> arg1 2) (> arg2 0)) (> arg1P 0)) (> arg2P (- 1))) (<= (+ arg3 2) arg1)))
    (cfg_trans2 pc f580_0_main_InvokeMethod pc1 f1682_0_reverse_NONNULL (and (and (and (and (and (and (and (and (and (<= arg1P arg1) (<= arg1P arg2)) (> arg1 6)) (> arg2 6)) (> arg1P 6)) (> arg2P (- 1))) (<= (+ arg3 2) arg1)) (<= (+ arg4 2) arg2)) (= 5 arg5)) (= 5 arg3P)))
    (cfg_trans2 pc f1650_0_main_InvokeMethod pc1 f1682_0_reverse_NONNULL (and (and (and (and (and (and (<= arg1P arg1) (> arg1 6)) (> arg1P 6)) (> arg2P (- 1))) (<= (+ arg2 4) arg1)) (= 5 arg3)) (= 5 arg3P)))
    (cfg_trans2 pc f1682_0_reverse_NONNULL pc1 f1682_0_reverse_NONNULL (and (and (and (and (> arg1 2) (> arg2 0)) (> arg1P 0)) (> arg2P (- 1))) (<= (+ arg3 2) arg1)))
    (cfg_trans2 pc f1682_0_reverse_NONNULL pc1 f1341_0_append_NONNULL (and (and (and (and (and (and (and (<= arg2P arg1) (> arg1 2)) (> arg2 0)) (> arg1P 1)) (> arg2P 1)) (> arg3P (- 1))) (<= (+ arg3 2) arg1)) (= arg3 arg5P)))
    (cfg_trans2 pc f1682_0_reverse_NONNULL pc1 f1748_0_reverse_InvokeMethod (and (and (and (and (and (and (<= arg2P arg1) (> arg1 2)) (> arg2 0)) (> arg1P 2)) (> arg2P 1)) (<= (+ arg3 2) arg1)) (= arg3 arg5P)))
    (cfg_trans2 pc f1682_0_reverse_NONNULL pc1 f1748_0_reverse_InvokeMethod (and (and (and (and (and (and (<= arg2P arg1) (> arg1 2)) (> arg2 0)) (> arg1P 4)) (> arg2P 1)) (<= (+ arg3 2) arg1)) (= arg3 arg5P)))
    (cfg_trans2 pc f1748_0_reverse_InvokeMethod pc1 f1341_0_append_NONNULL (and (and (and (and (and (and (and (and (and (and (and (<= arg1P arg1) (<= arg2P arg2)) (> arg1 2)) (> arg2 1)) (> arg1P 2)) (> arg2P 1)) (> arg3P (- 1))) (<= (+ arg3 4) arg1)) (<= (+ arg4 2) arg1)) (<= (+ arg5 2) arg2)) (= arg4 arg4P)) (= arg5 arg5P)))
    (cfg_trans2 pc __init pc1 f1_0_main_New true)
  )
)
